%%%mzn-stat: initTime=0.005514569
%%%mzn-stat: objective=315
%%%mzn-stat: nodes=408
%%%mzn-stat: restarts=0
%%%mzn-stat: peakDepth=72
%%%mzn-stat: solveTime=0.041495587
%%%mzn-stat: variables=508
%%%mzn-stat: propagators=359
%%%mzn-stat: failures=327
%%%mzn-stat: propagations=82533
%%%mzn-stat: nogoods=327
%%%mzn-stat: AverageConflictSize=2.477064220183486
%%%mzn-stat: NumUnitNogoodsLearned=314
%%%mzn-stat: AverageLearnedNogoodLength=3.0244648318042815
%%%mzn-stat: AverageBacktrackAmount=0
%%%mzn-stat: AverageLbd=1.2415902140672783
%%%mzn-stat-end
maxleg = 315;
succ = array1d(1..20,[2, 11, 5, 16, 20, 3, 6, 18, 8, 19, 9, 14, 4, 15, 1, 7, 10, 17, 13, 12]);
% time elapsed: 0.25 s
----------
==========
% time elapsed: 0.25 s
%%%mzn-stat: initTime=0.005514569
%%%mzn-stat: objective=315
%%%mzn-stat: nodes=408
%%%mzn-stat: restarts=0
%%%mzn-stat: peakDepth=72
%%%mzn-stat: solveTime=0.041500518
%%%mzn-stat: variables=508
%%%mzn-stat: propagators=359
%%%mzn-stat: failures=327
%%%mzn-stat: propagations=82533
%%%mzn-stat: nogoods=327
%%%mzn-stat: AverageConflictSize=2.477064220183486
%%%mzn-stat: NumUnitNogoodsLearned=314
%%%mzn-stat: AverageLearnedNogoodLength=3.0244648318042815
%%%mzn-stat: AverageBacktrackAmount=0
%%%mzn-stat: AverageLbd=1.2415902140672783
%%%mzn-stat-end
